100
1000
164
164
163
159
158
154
153
152
152
152
152
150
150
147
147
145
145
145
144
143
143
142
141
140
140
140
139
139
138
137
136
135
131
128
125
124
122
120
119
118
118
118
117
114
114
114
112
111
111
110
110
109
109
107
107
107
107
107
106
102
101
101
100
99
98
97
96
96
96
95
94
93
92
91
89
87
86
86
84
83
80
79
78
78
74
73
73
73
68
68
68
67
66
66
65
65
64
61
60
59
